5 5
4 72 3 42 0 51 1 19 2 66
3 47 0 65 2 42 1 38 4 13
0 44 3 24 1 96 2 30 4 70
1 38 3 97 0 23 2 74 4 57
3 79 4 23 0 36 2 57 1 1
-1
0 1 3 4 5
0 2 3 5
0 3 5
0 3 4 5
0 2 5
-2
102 256 262 337
128 197 315
195 286
198 282 428
115 209

406 5
10 6 17 2 22
15 12 8 3 24
7 13 18 4 23
5 11 16 1 20
0 14 9 21 19
